dates = {'2022-01-13','2022-01-14','2022-01-15','2022-01-16','2022-01-17','2022-01-18','2022-01-19','2022-01-20','2022-01-21','2022-01-22'};

daysOfWeek = [Thursday,Friday,Saturday,Sunday,Monday,Tuesday,Wednesday,Thursday,Friday,Saturday];

% For this week, how many people will be here.
numPeople = [162,162,162,162,162,162,162,162,163,162];

% Physical workers need 50 to 100 % more nutrients per day.
numPhysicalWorkers = [56.5,56.5,56.5,56.5,56.5,56.5,56.5,56.5,56.5,56.5];

% Males need +25% more nutrients per day.
numMen = [136,136,136,136,136,136,136,136,139,139];

% Num people who do not eat categories. contains = {none, meat, milk, gluten, egg, nut, seed, sugars}
numRefusals = [| 0,0,0,1,0,0,1,3 | 0,0,0,1,0,0,1,3 | 0,0,0,1,0,0,1,3 | 0,0,0,1,0,0,1,3 | 0,0,0,1,0,0,1,3 | 0,0,0,1,0,0,1,3 | 0,0,0,1,0,0,1,3 | 0,0,0,1,0,0,1,3 | 0,7,0,6,0,0,12,0 | 0,3,2,0,0,5,0,0 |];

